
Gurobi 10.0.1 (linux64) logging started Tue 15 Aug 2023 07:24:41 AM CDT

Set parameter LogFile to value "/home/dlcole3/graph_abstraction/plasmoexamples/SHP_serial/SHP_reserve_requirements/gurobi_logs/logfile30.log"
Set parameter NodefileStart to value 0.0005
Set parameter TimeLimit to value 36000
Gurobi Optimizer version 10.0.1 build v10.0.1rc0 (linux64)

CPU model: Intel(R) Xeon(R) CPU E5-2698 v4 @ 2.20GHz, instruction set [SSE2|AVX|AVX2]
Thread count: 40 physical cores, 80 logical processors, using up to 8 threads


Warning: excessive time spent in model updates.
Consider calling update less frequently.

Optimize a model with 1105538 rows, 641709 columns and 4644125 nonzeros
Model fingerprint: 0xc9a33f16
Variable types: 599982 continuous, 41727 integer (41727 binary)
Coefficient statistics:
  Matrix range     [5e-02, 2e+04]
  Objective range  [2e-01, 8e+04]
  Bounds range     [5e-02, 2e+04]
  RHS range        [1e-21, 7e+03]
Presolve removed 263131 rows and 109842 columns (presolve time = 5s) ...
Presolve removed 276859 rows and 116154 columns (presolve time = 10s) ...
Presolve removed 278955 rows and 119183 columns (presolve time = 15s) ...
Presolve removed 284714 rows and 123758 columns (presolve time = 20s) ...
Presolve removed 291636 rows and 123940 columns (presolve time = 25s) ...
Presolve removed 292345 rows and 124665 columns (presolve time = 30s) ...
Presolve removed 292385 rows and 124715 columns (presolve time = 35s) ...
Presolve removed 292685 rows and 124735 columns (presolve time = 40s) ...
Sparsify removed 202372 nonzeros (5%)
Presolve removed 292685 rows and 182871 columns (presolve time = 45s) ...
Presolve removed 292685 rows and 122883 columns
Presolve time: 45.50s
Presolved: 812853 rows, 518826 columns, 3978055 nonzeros
Variable types: 485129 continuous, 33697 integer (33632 binary)

Deterministic concurrent LP optimizer: primal simplex, dual simplex, and barrier
Showing barrier log only...

Root barrier log...

Elapsed ordering time = 5s
Elapsed ordering time = 18s
Elapsed ordering time = 21s
Elapsed ordering time = 25s
Elapsed ordering time = 31s
Elapsed ordering time = 35s
Elapsed ordering time = 40s
Elapsed ordering time = 45s
Elapsed ordering time = 46s
Elapsed ordering time = 50s
Elapsed ordering time = 55s
Elapsed ordering time = 59s
Elapsed ordering time = 60s
Elapsed ordering time = 65s
Ordering time: 69.39s

Barrier statistics:
 Dense cols : 214
 AA' NZ     : 2.391e+07
 Factor NZ  : 3.732e+08 (roughly 3.5 GB of memory)
 Factor Ops : 1.878e+12 (roughly 17 seconds per iteration)
 Threads    : 5

                  Objective                Residual
Iter       Primal          Dual         Primal    Dual     Compl     Time
   0  -2.23863536e+11 -1.80511790e+13  1.23e+04 8.57e+03  1.15e+08   140s
   1  -1.52981006e+11 -1.26791449e+13  8.86e+03 2.06e+05  7.16e+07   151s
   2  -7.63105660e+10 -8.06584979e+12  4.60e+03 2.95e+04  3.48e+07   166s
   3  -2.12839014e+10 -2.98241830e+12  1.48e+03 7.51e-01  1.03e+07   183s
   4  -2.84021371e+09 -1.33069995e+12  4.45e+02 2.60e-01  3.05e+06   199s
   5   3.89661431e+09 -5.98611458e+11  1.03e+02 2.43e-02  7.93e+05   216s
   6   5.18800361e+09 -2.39814554e+11  3.22e+01 1.43e-02  2.38e+05   234s
   7   4.73994005e+09 -8.42926609e+10  1.07e+01 4.10e-03  7.10e+04   251s
   8   2.81086867e+09 -3.43505500e+10  3.50e+00 1.98e-03  2.55e+04   267s
   9   8.43929249e+08 -8.68908893e+09  8.69e-01 5.38e-04  5.98e+03   286s
  10   1.57796784e+08 -9.34254540e+08  7.87e-02 9.71e-05  6.49e+02   305s
  11   7.28179028e+07 -1.41327401e+08  2.04e-03 2.03e-05  1.25e+02   325s
  12   5.59663125e+07 -1.03680469e+07  3.66e-04 2.80e-04  3.86e+01   343s
  13   5.15756169e+07  8.15422379e+06  2.05e-04 2.52e-04  2.53e+01   359s
  14   4.70370879e+07  2.13057982e+07  9.25e-05 1.61e-04  1.50e+01   378s
  15   4.47840492e+07  3.17021743e+07  5.17e-05 7.66e-05  7.61e+00   395s
  16   4.34696482e+07  3.58647249e+07  3.21e-05 4.81e-05  4.43e+00   412s
  17   4.27296505e+07  3.81331957e+07  2.34e-05 2.64e-05  2.68e+00   429s
  18   4.21820597e+07  3.84985276e+07  1.70e-05 2.28e-05  2.14e+00   444s
  19   4.17458423e+07  3.90647260e+07  1.21e-05 1.67e-05  1.56e+00   460s
  20   4.15604113e+07  3.93815277e+07  9.93e-06 1.38e-05  1.27e+00   476s
  21   4.14007319e+07  3.96887655e+07  8.03e-06 1.03e-05  9.96e-01   491s
  22   4.12413770e+07  3.98571020e+07  6.21e-06 8.67e-06  8.06e-01   506s
  23   4.10700452e+07  4.01098324e+07  4.24e-06 6.26e-06  5.59e-01   522s
  24   4.08954778e+07  4.02876369e+07  2.45e-06 4.11e-06  3.54e-01   538s
  25   4.07939524e+07  4.04933878e+07  1.33e-06 2.79e-06  1.75e-01   555s
  26   4.07161284e+07  4.05723340e+07  1.01e-06 1.38e-06  8.37e-02   572s
  27   4.06812088e+07  4.06158724e+07  2.48e-06 6.36e-07  3.80e-02   592s
  28   4.06669931e+07  4.06351712e+07  1.37e-06 3.10e-07  1.85e-02   615s
  29   4.06562497e+07  4.06501070e+07  5.96e-07 4.68e-08  3.58e-03   643s
  30   4.06542194e+07  4.06523965e+07  2.27e-07 1.04e-08  1.06e-03   670s
  31   4.06532709e+07  4.06530517e+07  7.33e-08 4.39e-09  1.28e-04   693s
  32   4.06530986e+07  4.06530876e+07  5.43e-08 3.60e-09  6.37e-06   714s
  33   4.06530952e+07  4.06530950e+07  9.27e-07 2.39e-08  9.19e-08   731s
  34   4.06530951e+07  4.06530951e+07  5.60e-06 3.24e-08  4.26e-08   749s
  35   4.06530953e+07  4.06530951e+07  6.12e-06 5.14e-08  3.05e-08   766s

Barrier solved model in 35 iterations and 765.52 seconds (713.97 work units)
Optimal objective 4.06530953e+07


Root crossover log...

  349251 DPushes remaining with DInf 2.8684801e-04               767s
   79038 DPushes remaining with DInf 2.0807408e-05               772s
   42277 DPushes remaining with DInf 0.0000000e+00               775s
   15291 DPushes remaining with DInf 0.0000000e+00               781s
    4827 DPushes remaining with DInf 0.0000000e+00               786s
       0 DPushes remaining with DInf 0.0000000e+00               788s

   18286 PPushes remaining with PInf 0.0000000e+00               788s
    4139 PPushes remaining with PInf 0.0000000e+00               791s
       0 PPushes remaining with PInf 0.0000000e+00               793s

  Push phase complete: Pinf 0.0000000e+00, Dinf 4.4941102e-07    793s


Root simplex log...

Iteration    Objective       Primal Inf.    Dual Inf.      Time
  162273    4.0653095e+07   0.000000e+00   0.000000e+00    794s
  162273    4.0653095e+07   0.000000e+00   0.000000e+00    795s
Waiting for other threads to finish...         880s
Concurrent spin time: 95.45s (can be avoided by choosing Method=3)

Solved with barrier

Root relaxation: objective 4.065310e+07, 162273 iterations, 840.56 seconds (694.44 work units)

    Nodes    |    Current Node    |     Objective Bounds      |     Work
 Expl Unexpl |  Obj  Depth IntInf | Incumbent    BestBd   Gap | It/Node Time

     0     0 4.0653e+07    0   36          - 4.0653e+07      -     -  898s
     0     0 4.0653e+07    0   36          - 4.0653e+07      -     -  901s
H    0     0                    4.083599e+07 4.0653e+07  0.45%     -  908s

Explored 1 nodes (162649 simplex iterations) in 908.72 seconds (750.39 work units)
Thread count was 8 (of 80 available processors)

Solution count 2: 4.0836e+07 4.0836e+07 

Optimal solution found (tolerance 5.00e-02)
Best objective 4.083599277271e+07, best bound 4.065309513626e+07, gap 0.4479%

User-callback calls 116978, time in user-callback 0.34 sec
